c
c start with comments
c
p cnf 25 19
3 -2 10 0
19 -2 28 6 18 0
-17 21 6 0
-3 13 0
-13 -26 -27 0
8 -1 0
21 -27 -8 0
-16 23 0
-12 -21 0
16 11 0
4 -10 0
-15 -9 0
-23 -4 0
-11 9 -8 24 9 0
28 -17 -26 0
9 10 -8 -13 0
19 -11 -18 0
-8 -24 26 7 22 0
-14 27 0